(set-logic ALL)
(declare-const path String)
(assert (not (< (str.len path) 0)))
(assert (str.prefixof "/" path))
(assert (not (< (str.len path) 0)))
(assert (str.prefixof "/" path))
(assert (not (= path "")))
(assert (not (< (str.len path) 0)))
(assert (str.prefixof "/" path))
(assert (not (< (str.len path) 0)))
(assert (str.prefixof "//" path))
(assert (not (< (str.len path) 0)))
(assert (not (str.prefixof "///" path)))
(assert (not (< (str.len path) 0)))
(assert (not (= (+ 0 (str.indexof path "/" 0)) (- 1))))
(assert (not (< (+ 0 (str.indexof path "/" 0)) 0)))
(assert (not (< (+ (+ 0 (str.indexof path "/" 0)) 1) 0)))
(assert (not (< (str.len path) 0)))
(assert (not (< (str.len (str.substr path (+ (+ 0 (str.indexof path "/" 0)) 1) (- (str.len path) (+ (+ 0 (str.indexof path "/" 0)) 1)))) 0)))
(assert (not (= (+ 0 (str.indexof (str.substr path (+ (+ 0 (str.indexof path "/" 0)) 1) (- (str.len path) (+ (+ 0 (str.indexof path "/" 0)) 1))) "/" 0)) (- 1))))
(assert (not (< (+ 0 (str.indexof (str.substr path (+ (+ 0 (str.indexof path "/" 0)) 1) (- (str.len path) (+ (+ 0 (str.indexof path "/" 0)) 1))) "/" 0)) 0)))
(assert (not (< (+ (+ 0 (str.indexof (str.substr path (+ (+ 0 (str.indexof path "/" 0)) 1) (- (str.len path) (+ (+ 0 (str.indexof path "/" 0)) 1))) "/" 0)) 1) 0)))
(assert (not (< (str.len (str.substr path (+ (+ 0 (str.indexof path "/" 0)) 1) (- (str.len path) (+ (+ 0 (str.indexof path "/" 0)) 1)))) 0)))
(assert (not (< (str.len (str.substr (str.substr path (+ (+ 0 (str.indexof path "/" 0)) 1) (- (str.len path) (+ (+ 0 (str.indexof path "/" 0)) 1))) (+ (+ 0 (str.indexof (str.substr path (+ (+ 0 (str.indexof path "/" 0)) 1) (- (str.len path) (+ (+ 0 (str.indexof path "/" 0)) 1))) "/" 0)) 1) (- (str.len (str.substr path (+ (+ 0 (str.indexof path "/" 0)) 1) (- (str.len path) (+ (+ 0 (str.indexof path "/" 0)) 1)))) (+ (+ 0 (str.indexof (str.substr path (+ (+ 0 (str.indexof path "/" 0)) 1) (- (str.len path) (+ (+ 0 (str.indexof path "/" 0)) 1))) "/" 0)) 1)))) 0)))
(assert (not (= (+ 0 (str.indexof (str.substr (str.substr path (+ (+ 0 (str.indexof path "/" 0)) 1) (- (str.len path) (+ (+ 0 (str.indexof path "/" 0)) 1))) (+ (+ 0 (str.indexof (str.substr path (+ (+ 0 (str.indexof path "/" 0)) 1) (- (str.len path) (+ (+ 0 (str.indexof path "/" 0)) 1))) "/" 0)) 1) (- (str.len (str.substr path (+ (+ 0 (str.indexof path "/" 0)) 1) (- (str.len path) (+ (+ 0 (str.indexof path "/" 0)) 1)))) (+ (+ 0 (str.indexof (str.substr path (+ (+ 0 (str.indexof path "/" 0)) 1) (- (str.len path) (+ (+ 0 (str.indexof path "/" 0)) 1))) "/" 0)) 1))) "/" 0)) (- 1))))
(assert (not (< (+ 0 (str.indexof (str.substr (str.substr path (+ (+ 0 (str.indexof path "/" 0)) 1) (- (str.len path) (+ (+ 0 (str.indexof path "/" 0)) 1))) (+ (+ 0 (str.indexof (str.substr path (+ (+ 0 (str.indexof path "/" 0)) 1) (- (str.len path) (+ (+ 0 (str.indexof path "/" 0)) 1))) "/" 0)) 1) (- (str.len (str.substr path (+ (+ 0 (str.indexof path "/" 0)) 1) (- (str.len path) (+ (+ 0 (str.indexof path "/" 0)) 1)))) (+ (+ 0 (str.indexof (str.substr path (+ (+ 0 (str.indexof path "/" 0)) 1) (- (str.len path) (+ (+ 0 (str.indexof path "/" 0)) 1))) "/" 0)) 1))) "/" 0)) 0)))
(assert (not (< (+ (+ 0 (str.indexof (str.substr (str.substr path (+ (+ 0 (str.indexof path "/" 0)) 1) (- (str.len path) (+ (+ 0 (str.indexof path "/" 0)) 1))) (+ (+ 0 (str.indexof (str.substr path (+ (+ 0 (str.indexof path "/" 0)) 1) (- (str.len path) (+ (+ 0 (str.indexof path "/" 0)) 1))) "/" 0)) 1) (- (str.len (str.substr path (+ (+ 0 (str.indexof path "/" 0)) 1) (- (str.len path) (+ (+ 0 (str.indexof path "/" 0)) 1)))) (+ (+ 0 (str.indexof (str.substr path (+ (+ 0 (str.indexof path "/" 0)) 1) (- (str.len path) (+ (+ 0 (str.indexof path "/" 0)) 1))) "/" 0)) 1))) "/" 0)) 1) 0)))
(assert (not (< (str.len (str.substr (str.substr path (+ (+ 0 (str.indexof path "/" 0)) 1) (- (str.len path) (+ (+ 0 (str.indexof path "/" 0)) 1))) (+ (+ 0 (str.indexof (str.substr path (+ (+ 0 (str.indexof path "/" 0)) 1) (- (str.len path) (+ (+ 0 (str.indexof path "/" 0)) 1))) "/" 0)) 1) (- (str.len (str.substr path (+ (+ 0 (str.indexof path "/" 0)) 1) (- (str.len path) (+ (+ 0 (str.indexof path "/" 0)) 1)))) (+ (+ 0 (str.indexof (str.substr path (+ (+ 0 (str.indexof path "/" 0)) 1) (- (str.len path) (+ (+ 0 (str.indexof path "/" 0)) 1))) "/" 0)) 1)))) 0)))
(assert (< (str.len (str.substr (str.substr (str.substr path (+ (+ 0 (str.indexof path "/" 0)) 1) (- (str.len path) (+ (+ 0 (str.indexof path "/" 0)) 1))) (+ (+ 0 (str.indexof (str.substr path (+ (+ 0 (str.indexof path "/" 0)) 1) (- (str.len path) (+ (+ 0 (str.indexof path "/" 0)) 1))) "/" 0)) 1) (- (str.len (str.substr path (+ (+ 0 (str.indexof path "/" 0)) 1) (- (str.len path) (+ (+ 0 (str.indexof path "/" 0)) 1)))) (+ (+ 0 (str.indexof (str.substr path (+ (+ 0 (str.indexof path "/" 0)) 1) (- (str.len path) (+ (+ 0 (str.indexof path "/" 0)) 1))) "/" 0)) 1))) (+ (+ 0 (str.indexof (str.substr (str.substr path (+ (+ 0 (str.indexof path "/" 0)) 1) (- (str.len path) (+ (+ 0 (str.indexof path "/" 0)) 1))) (+ (+ 0 (str.indexof (str.substr path (+ (+ 0 (str.indexof path "/" 0)) 1) (- (str.len path) (+ (+ 0 (str.indexof path "/" 0)) 1))) "/" 0)) 1) (- (str.len (str.substr path (+ (+ 0 (str.indexof path "/" 0)) 1) (- (str.len path) (+ (+ 0 (str.indexof path "/" 0)) 1)))) (+ (+ 0 (str.indexof (str.substr path (+ (+ 0 (str.indexof path "/" 0)) 1) (- (str.len path) (+ (+ 0 (str.indexof path "/" 0)) 1))) "/" 0)) 1))) "/" 0)) 1) (- (str.len (str.substr (str.substr path (+ (+ 0 (str.indexof path "/" 0)) 1) (- (str.len path) (+ (+ 0 (str.indexof path "/" 0)) 1))) (+ (+ 0 (str.indexof (str.substr path (+ (+ 0 (str.indexof path "/" 0)) 1) (- (str.len path) (+ (+ 0 (str.indexof path "/" 0)) 1))) "/" 0)) 1) (- (str.len (str.substr path (+ (+ 0 (str.indexof path "/" 0)) 1) (- (str.len path) (+ (+ 0 (str.indexof path "/" 0)) 1)))) (+ (+ 0 (str.indexof (str.substr path (+ (+ 0 (str.indexof path "/" 0)) 1) (- (str.len path) (+ (+ 0 (str.indexof path "/" 0)) 1))) "/" 0)) 1)))) (+ (+ 0 (str.indexof (str.substr (str.substr path (+ (+ 0 (str.indexof path "/" 0)) 1) (- (str.len path) (+ (+ 0 (str.indexof path "/" 0)) 1))) (+ (+ 0 (str.indexof (str.substr path (+ (+ 0 (str.indexof path "/" 0)) 1) (- (str.len path) (+ (+ 0 (str.indexof path "/" 0)) 1))) "/" 0)) 1) (- (str.len (str.substr path (+ (+ 0 (str.indexof path "/" 0)) 1) (- (str.len path) (+ (+ 0 (str.indexof path "/" 0)) 1)))) (+ (+ 0 (str.indexof (str.substr path (+ (+ 0 (str.indexof path "/" 0)) 1) (- (str.len path) (+ (+ 0 (str.indexof path "/" 0)) 1))) "/" 0)) 1))) "/" 0)) 1)))) 0))
(check-sat)
(get-value (path))
